9 5 7 9 0 7 6 1 6 -1 
7 1 6 -1 2 9 2 0 0 5 1 -1 
1 4 3 6 -1 4 0 -1 -1 4 0 5 8 -1 
4 6 7 4 6 9 2 3 7 -1 
6 1 2 6 5 9 9 1 3 -1 8 -1 
-1 2 6 0 4 2 2 7 2 -1 
8 3 -1 2 4 9 1 3 8 7 5 -1 
2 5 2 4 2 5 3 9 9 2 -1 
7 1 6 -1 9 6 5 9 4 6 -1 5 4 -1 
5 6 2 0 8 9 8 7 2 9 -1 
0 2 7 0 2 2 2 5 4 1 -1 
0 8 7 8 7 5 -1 3 6 -1 
0 3 3 6 -1 0 8 2 5 9 -1 
9 5 8 -1 -1 1 3 6 6 1 -1 
-1 8 -1 0 5 4 5 6 8 6 -1 
-1 5 5 6 7 3 9 6 6 3 -1 
0 3 5 9 0 1 7 1 8 6 9 6 -1 
2 0 4 1 0 2 9 6 9 3 -1 
-1 0 6 3 6 -1 -1 2 4 -1 
3 8 9 9 8 0 -1 1 5 -1 
